Fe2
1.0
2.8400520000 0.0000000000 0.0000000000 
0.0000000000 2.8400520000 0.0000000000 
0.0000000000 0.0000000000 2.8400520000 
Fe 
2 
Selective dynamics
Direct
0.0000000000 0.0000000000 0.0000000000 F T T 
0.5000000000 0.5000000000 0.5000000000 F T T 
